(set-logic HORN)
(set-option :fp.engine spacer)
(set-option :model true)

(declare-fun q1 (Int) Bool)
(declare-fun q2 (Int Int Int) Bool)
(declare-fun q3 (Int Int Int Int) Bool)
(declare-fun q4 (Int Int Int Int Int Int) Bool)
(declare-fun q5 (Int Int Int Int Int) Bool)
(declare-fun q6 (Int Int Int) Bool)
(declare-fun q7 (Int Int) Bool)
(declare-fun q8 (Int Int) Bool)
(declare-fun q9 () Bool)
(assert (forall ((|x| Int)) (=> (and (= |x| 42)) (q1 |x|))))
(assert (forall ((|x| Int) (|x'| Int) (|y*| Int) (|y^| Int)) (=> (and (q1 |x|) (= |y*| |x|) (= |x'| |y^|)) (q2 |x'| |y*| |y^|))))
(assert (forall ((|a| Int) (|x| Int) (|y*| Int) (|y^| Int)) (=> (and (q2 |x| |y*| |y^|) (= |a| 0)) (q3 |x| |y*| |y^| |a|))))
(assert (forall ((|a| Int) (|a'| Int) (|b*| Int) (|b^| Int) (|x| Int) (|y*| Int) (|y^| Int)) (=> (and (q3 |x| |y*| |y^| |a|) (= |b*| |a|) (= |a'| |b^|)) (q4 |x| |y*| |y^| |a'| |b*| |b^|))))
(assert (forall ((|a| Int) (|b*| Int) (|b^| Int) (|x| Int) (|y*| Int) (|y^| Int)) (=> (and (q4 |x| |y*| |y^| |a| |b*| |b^|)) (q5 |x| |y*| |y^| |b*| |b^|))))
(assert (forall ((|b*| Int) (|b^| Int) (|x| Int) (|y*| Int) (|y^| Int)) (=> (and (q5 |x| |y*| |y^| |b*| |b^|)) (= |y*| 42))))
(assert (forall ((|b*| Int) (|b^| Int) (|x| Int) (|y*| Int) (|y^| Int)) (=> (and (q5 |x| |y*| |y^| |b*| |b^|) (= |y^| |y*|)) (q6 |x| |b*| |b^|))))
(assert (forall ((|b*| Int) (|b^| Int) (|x| Int)) (=> (and (q6 |x| |b*| |b^|)) (= |x| 42))))
(assert (forall ((|b*| Int) (|b^| Int) (|x| Int)) (=> (and (q6 |x| |b*| |b^|)) (q7 |b*| |b^|))))
(assert (forall ((|b*| Int) (|b^| Int)) (=> (and (q7 |b*| |b^|)) (= |b*| 0))))
(assert (forall ((|b*| Int) (|b^| Int)) (=> (and (q7 |b*| |b^|)) (q8 |b*| |b^|))))
(assert (forall ((|b*| Int) (|b^| Int)) (=> (and (q8 |b*| |b^|)) (= |b*| 0))))
(assert (forall ((|b*| Int) (|b^| Int)) (=> (and (q8 |b*| |b^|) (= |b^| |b*|)) q9)))

(check-sat)
(get-model)
